row=7;
Board=[|1,0,0,9,0,7,0,0,3,0|0,3,5,10,0,1,0,4,0,0|0,7,0,1,6,0,0,0,2,4|9,0,0,0,0,2,0,4,1,3|0,0,0,1,4,0,3,5,10,0|9,0,7,0,0,0,4,0,3,0|0,4,5,6,7,9,0,0,2,10|];
bottom=[204120,107520,302400,37800,80640,34020,25920,48000,2520,3840]